(set-info :smt-lib-version 2.6)
(set-info :category "crafted")
(set-logic QF_FFA)
(define-sort FF0 () (_ FiniteField 52435875175126190479447740508185965837690552500527637822603658699938581184513))
(declare-fun b () Bool)
(declare-fun a () Bool)
(declare-fun return_n0 () FF0)
(declare-fun mul_n23 () FF0)
(declare-fun mul_n21 () FF0)
(declare-fun mul_n22 () FF0)
(declare-fun mul_n16 () FF0)
(declare-fun mul_n10 () FF0)
(declare-fun mul_n12 () FF0)
(declare-fun a_n2 () FF0)
(declare-fun mul_n20 () FF0)
(declare-fun mul_n18 () FF0)
(declare-fun mul_n19 () FF0)
(declare-fun mul_n9 () FF0)
(declare-fun mul_n8 () FF0)
(declare-fun mul_n17 () FF0)
(declare-fun mul_n14 () FF0)
(declare-fun mul_n15 () FF0)
(declare-fun mul_n3 () FF0)
(declare-fun b_n1 () FF0)
(declare-fun mul_n11 () FF0)
(declare-fun mul_n13 () FF0)
(declare-fun mul_n7 () FF0)
(declare-fun mul_n6 () FF0)
(declare-fun mul_n5 () FF0)
(declare-fun mul_n4 () FF0)
(assert 
  (let ((let0 b))
  (let ((let1 a))
  (let ((let2 (ite let0 let1 let0)))
  (let ((let3 (and let0 let2 let1 let1 let1 let0)))
  (let ((let4 (ite let2 let2 let3)))
  (let ((let5 (=> let4 let3)))
  (let ((let6 (= let3 let4)))
  (let ((let7 (=> let6 let5)))
  (let ((let8 (not let5)))
  (let ((let9 (=> let8 let7)))
  (let ((let10 (or let9 let4)))
  (let ((let11 (and let6 let2)))
  (let ((let12 (=> let11 let7)))
  (let ((let13 (= let12 let10)))
  (let ((let14 (ite let12 let8 let5)))
  (let ((let15 (or let4 let7 let14 let1)))
  (let ((let16 (ite let7 let5 let12)))
  (let ((let17 (and let16 let15 let13)))
  (let ((let18 return_n0))
  (let ((let19 (as ff1 FF0)))
  (let ((let20 (= let19 let18)))
  (let ((let21 (= let20 let17)))
  (let ((let22 (as ff0 FF0)))
  (let ((let23 (= let22 let18)))
  (let ((let24 (or let20 let23)))
  (let ((let25 (and let24 let21)))
  (let ((let26 mul_n23))
  (let ((let27 (as ff52435875175126190479447740508185965837690552500527637822603658699938581184512 FF0)))
  (let ((let28 mul_n21))
  (let ((let29 (ff.mul let28 let27)))
  (let ((let30 (ff.add let29 let19)))
  (let ((let31 mul_n22))
  (let ((let32 mul_n16))
  (let ((let33 (ff.mul let32 let27)))
  (let ((let34 (ff.add let33 let31 let19)))
  (let ((let35 (ff.mul let34 let30)))
  (let ((let36 (= let35 let26)))
  (let ((let37 mul_n10))
  (let ((let38 (ff.mul let37 let27)))
  (let ((let39 (ff.add let32 let38)))
  (let ((let40 mul_n12))
  (let ((let41 (ff.mul let40 let27)))
  (let ((let42 (ff.add let41 let19)))
  (let ((let43 (ff.mul let42 let39)))
  (let ((let44 (= let43 let31)))
  (let ((let45 a_n2))
  (let ((let46 (ff.mul let45 let27)))
  (let ((let47 (ff.add let46 let19)))
  (let ((let48 mul_n20))
  (let ((let49 (ff.mul let48 let47)))
  (let ((let50 (= let49 let28)))
  (let ((let51 mul_n18))
  (let ((let52 (ff.mul let51 let27)))
  (let ((let53 (ff.add let52 let37)))
  (let ((let54 mul_n19))
  (let ((let55 (ff.mul let54 let53)))
  (let ((let56 (= let55 let48)))
  (let ((let57 mul_n9))
  (let ((let58 (ff.mul let57 let27)))
  (let ((let59 mul_n8))
  (let ((let60 (ff.mul let59 let27)))
  (let ((let61 (ff.add let60 let58 let19)))
  (let ((let62 (ff.mul let61 let40)))
  (let ((let63 (= let62 let54)))
  (let ((let64 (as ff2 FF0)))
  (let ((let65 (ff.mul let37 let64)))
  (let ((let66 (ff.add let65 let27)))
  (let ((let67 (ff.add let33 let19)))
  (let ((let68 (ff.mul let67 let66)))
  (let ((let69 (= let68 let51)))
  (let ((let70 mul_n17))
  (let ((let71 mul_n14))
  (let ((let72 (ff.mul let71 let27)))
  (let ((let73 (ff.add let72 let19)))
  (let ((let74 (as ff52435875175126190479447740508185965837690552500527637822603658699938581184511 FF0)))
  (let ((let75 (ff.mul let32 let74)))
  (let ((let76 (ff.add let75 let64)))
  (let ((let77 (ff.mul let76 let73)))
  (let ((let78 (= let77 let70)))
  (let ((let79 mul_n15))
  (let ((let80 (ff.mul let79 let40)))
  (let ((let81 (= let80 let32)))
  (let ((let82 mul_n3))
  (let ((let83 b_n1))
  (let ((let84 (ff.add let83 let82)))
  (let ((let85 mul_n11))
  (let ((let86 (ff.mul let59 let74)))
  (let ((let87 (ff.add let86 let58 let85 let19)))
  (let ((let88 (ff.mul let87 let84)))
  (let ((let89 (= let88 let79)))
  (let ((let90 mul_n13))
  (let ((let91 (ff.mul let90 let61)))
  (let ((let92 (= let91 let71)))
  (let ((let93 (ff.mul let37 let40)))
  (let ((let94 (= let93 let90)))
  (let ((let95 (ff.mul let87 let37)))
  (let ((let96 (= let95 let40)))
  (let ((let97 (ff.add let59 let57)))
  (let ((let98 (ff.mul let59 let64)))
  (let ((let99 (ff.mul let98 let97)))
  (let ((let100 (= let99 let85)))
  (let ((let101 (ff.add let60 let19)))
  (let ((let102 (ff.mul let97 let101)))
  (let ((let103 (= let102 let37)))
  (let ((let104 (ff.add let60 let83 let82)))
  (let ((let105 (ff.mul let84 let104)))
  (let ((let106 (= let105 let57)))
  (let ((let107 mul_n7))
  (let ((let108 (ff.mul let107 let83)))
  (let ((let109 (= let108 let59)))
  (let ((let110 mul_n6))
  (let ((let111 (ff.mul let110 let45)))
  (let ((let112 (= let111 let107)))
  (let ((let113 mul_n5))
  (let ((let114 (ff.mul let113 let45)))
  (let ((let115 (= let114 let110)))
  (let ((let116 mul_n4))
  (let ((let117 (ff.mul let116 let45)))
  (let ((let118 (= let117 let113)))
  (let ((let119 (ff.mul let83 let84)))
  (let ((let120 (= let119 let116)))
  (let ((let121 (ff.mul let83 let27)))
  (let ((let122 (ff.add let121 let45)))
  (let ((let123 (ff.mul let83 let122)))
  (let ((let124 (= let123 let82)))
  (let ((let125 (and let124 let120 let118 let115 let112 let109 let106 let103 let100 let96 let94 let92 let89 let81 let78 let69 let63 let56 let50 let44 let36)))
  (let ((let126 (ite let1 let19 let22)))
  (let ((let127 (= let45 let126)))
  (let ((let128 (ite let0 let19 let22)))
  (let ((let129 (= let83 let128)))
  (let ((let130 (and let129 let127)))
  (let ((let131 (and let130 let125)))
  (let ((let132 (=> let131 let25)))
  (let ((let133 (not let132)))
  let133
))))))))))))))))))))))))))))))))))))))))))))))))))))))))))))))))))))))))))))))))))))))))))))))))))))))))))))))))))))))))))))))))))))))
)
(check-sat)
